

(define-const x Real 10.0)
(simplify x)
(simplify (+ x 1.0))

(define-const y Bool 1.0)
(define-const x Bool true)
(define-const Bool true)
(define-const)
(define-const 10.0)
(define-const z Real 10.0 10.0)